Instance: E076-10e.dat
Class:  3
   75 --- number of customers (no depot)
   16 --- number of vehicles
  155 --- number of items
Capacity - height - width of vehicles
   140     40     20
Node - x - y - demand
    0    40.0    40.0     0.0
    1    22.0    22.0    18.0
    2    36.0    26.0    26.0
    3    21.0    45.0    11.0
    4    45.0    35.0    30.0
    5    55.0    20.0    21.0
    6    33.0    34.0    19.0
    7    50.0    50.0    15.0
    8    55.0    45.0    16.0
    9    26.0    59.0    29.0
   10    40.0    66.0    26.0
   11    55.0    65.0    37.0
   12    35.0    51.0    16.0
   13    62.0    35.0    12.0
   14    62.0    57.0    31.0
   15    62.0    24.0     8.0
   16    21.0    36.0    19.0
   17    33.0    44.0    20.0
   18     9.0    56.0    13.0
   19    62.0    48.0    15.0
   20    66.0    14.0    22.0
   21    44.0    13.0    28.0
   22    26.0    13.0    12.0
   23    11.0    28.0     6.0
   24     7.0    43.0    27.0
   25    17.0    64.0    14.0
   26    41.0    46.0    18.0
   27    55.0    34.0    17.0
   28    35.0    16.0    29.0
   29    52.0    26.0    13.0
   30    43.0    26.0    22.0
   31    31.0    76.0    25.0
   32    22.0    53.0    28.0
   33    26.0    29.0    27.0
   34    50.0    40.0    19.0
   35    55.0    50.0    10.0
   36    54.0    10.0    12.0
   37    60.0    15.0    14.0
   38    47.0    66.0    24.0
   39    30.0    60.0    16.0
   40    30.0    50.0    33.0
   41    12.0    17.0    15.0
   42    15.0    14.0    11.0
   43    16.0    19.0    18.0
   44    21.0    48.0    17.0
   45    50.0    30.0    21.0
   46    51.0    42.0    27.0
   47    50.0    15.0    19.0
   48    48.0    21.0    20.0
   49    12.0    38.0     5.0
   50    15.0    56.0    22.0
   51    29.0    39.0    12.0
   52    54.0    38.0    19.0
   53    55.0    57.0    22.0
   54    67.0    41.0    16.0
   55    10.0    70.0     7.0
   56     6.0    25.0    26.0
   57    65.0    27.0    14.0
   58    40.0    60.0    21.0
   59    70.0    64.0    24.0
   60    64.0     4.0    13.0
   61    36.0     6.0    15.0
   62    30.0    20.0    18.0
   63    20.0    30.0    11.0
   64    15.0     5.0    28.0
   65    50.0    70.0     9.0
   66    57.0    72.0    37.0
   67    45.0    42.0    30.0
   68    38.0    33.0    10.0
   69    50.0     4.0     8.0
   70    66.0     8.0    11.0
   71    59.0     5.0     3.0
   72    35.0    60.0     1.0
   73    27.0    24.0     6.0
   74    40.0    20.0    10.0
   75    40.0    37.0    20.0
Node - number of items - h - w for each item
    0   0
    1   3    7   11   10    4   16    3
    2   3   14    8   11    4   31    3
    3   3    6   13    9    7   17    3
    4   2   15    7   10    7
    5   2   14    8   14    7
    6   2   11    5   10    5
    7   1    6   11
    8   1   26    2
    9   3   12    8   15    5   12    4
   10   2   13    6   14    5
   11   2    7   11   15    6
   12   2    7    6   14    4
   13   1   19    3
   14   1   19    3
   15   1   24    3
   16   1    6   12
   17   1   10    5
   18   2   17    4   21    3
   19   3    7   15    8   11    9    5
   20   3    6   15   16    6   15    5
   21   1   14    7
   22   3    6   12    5   10   24    3
   23   3   12    7   15    6   24    2
   24   3    6   13   13    3   19    2
   25   1   15    4
   26   3    9    7   11    5   29    4
   27   3    5   13   20    3   13    2
   28   3    4   15   13    5   30    3
   29   2   11    8   19    2
   30   2    8   14   15    6
   31   3    7    7   11    5   11    4
   32   3   16    4   15    4    9    4
   33   3    5   12    9    6   22    4
   34   2    7    9    8    8
   35   3    7   15    5   12   10    4
   36   3   15    7   19    4   10    4
   37   1    6   12
   38   3   16    6   11    6   22    2
   39   2    4   16    8    9
   40   1    7   10
   41   3   13    4   19    3   30    2
   42   3   14    6   15    5   19    3
   43   3    4   12   12    7   21    3
   44   1   14    5
   45   3   25    4   22    3   24    2
   46   1   12    5
   47   1   12    4
   48   3    5   12   19    3   17    3
   49   1    9    7
   50   1   30    3
   51   2    4    8   28    2
   52   2    9    8   14    7
   53   3    5   13    6   11   29    4
   54   2    6   10    6   10
   55   1   22    3
   56   1    5   11
   57   1   23    4
   58   2   13    6   28    3
   59   2    6   14   19    3
   60   2    6   13   16    6
   61   1   16    3
   62   2    6   12    5    9
   63   2    6    9   11    4
   64   2    4    7   10    6
   65   2    6    9   29    4
   66   3    6   11    8    9   18    3
   67   2    4   13    4   12
   68   1   18    3
   69   2   16    6   10    5
   70   1   16    7
   71   3    5   13   29    4   25    3
   72   2    7   15    7   12
   73   2   14    6   14    4
   74   3    7   10   12    8   22    2
   75   2    4   13    4    7
